
Log started (V12.8.0.0) Wed Aug 29 20:10:28 2018

New value for time limit in seconds: 500
CPXPARAM_TimeLimit                               500
CPXPARAM_Emphasis_Numerical                      1
CPXPARAM_Parallel                                -1
CPXPARAM_Benders_Strategy                        3
CPXPARAM_MIP_Tolerances_Integrality              9.9999999999999995e-08
CPXPARAM_MIP_Pool_AbsGap                         0
Tried aggregator 4 times.
MIP Presolve eliminated 8936 rows and 4212 columns.
MIP Presolve added 236 rows and 0 columns.
MIP Presolve modified 52 coefficients.
Aggregator did 1862 substitutions.
Reduced MIP has 5612 rows, 4947 columns, and 20280 nonzeros.
Reduced MIP has 258 binaries, 0 generals, 0 SOSs, and 0 indicators.
Presolve time = 0.02 sec. (25.63 ticks)
Found incumbent of value 5.508364 after 0.05 sec. (46.13 ticks)
Tried aggregator 2 times.
MIP Presolve eliminated 240 rows and 0 columns.
MIP Presolve added 236 rows and 0 columns.
MIP Presolve modified 18 coefficients.
Aggregator did 2 substitutions.
Reduced MIP has 5606 rows, 4945 columns, and 20266 nonzeros.
Reduced MIP has 256 binaries, 0 generals, 0 SOSs, and 0 indicators.
Presolve time = 0.01 sec. (9.90 ticks)

        Nodes                                         Cuts/
   Node  Left     Objective  IInf  Best Integer    Best Bound    ItCnt     Gap

      0     0      110.0000                       Benders: 10        0         
      0     0      110.0000                        Benders: 2        1         
      0     0      110.0000                        Benders: 2        4         
      0     0      110.0000                        Benders: 2        6         
Tried aggregator 1 time.
MIP Presolve eliminated 232 rows and 0 columns.
MIP Presolve modified 277 coefficients.
Reduced MIP has 258 rows, 266 columns, and 926 nonzeros.
Reduced MIP has 256 binaries, 0 generals, 0 SOSs, and 0 indicators.
Presolve time = 0.00 sec. (1.14 ticks)
Probing time = 0.00 sec. (0.62 ticks)
Tried aggregator 1 time.
Reduced MIP has 258 rows, 266 columns, and 926 nonzeros.
Reduced MIP has 256 binaries, 0 generals, 0 SOSs, and 0 indicators.
Presolve time = 0.00 sec. (0.63 ticks)
Probing time = 0.00 sec. (0.62 ticks)
Clique table members: 741.
MIP emphasis: balance optimality and feasibility.
MIP search method: dynamic search.
Parallel mode: opportunistic, using up to 8 threads.
Root relaxation solution time = 0.00 sec. (0.33 ticks)
*     0+    0                           12.3003      110.0000           794.28%
      0     0      110.0000     8       12.3003      110.0000       27  794.28%
*     0+    0                           61.1192      110.0000            79.98%
      0     0      110.0000    12       61.1192      Fract: 4       33   79.98%
*     0+    0                           62.1594      110.0000            76.96%

Repeating presolve.
Tried aggregator 1 time.
MIP Presolve modified 34 coefficients.
Reduced MIP has 258 rows, 266 columns, and 926 nonzeros.
Reduced MIP has 256 binaries, 0 generals, 0 SOSs, and 0 indicators.
Presolve time = 0.00 sec. (0.65 ticks)
Probing time = 0.00 sec. (0.58 ticks)
Tried aggregator 1 time.
Reduced MIP has 258 rows, 266 columns, and 926 nonzeros.
Reduced MIP has 256 binaries, 0 generals, 0 SOSs, and 0 indicators.
Presolve time = 0.00 sec. (0.64 ticks)
Represolve time = 0.01 sec. (3.14 ticks)
Probing time = 0.00 sec. (0.58 ticks)
Clique table members: 741.
MIP emphasis: balance optimality and feasibility.
MIP search method: dynamic search.
Parallel mode: opportunistic, using up to 8 threads.
Root relaxation solution time = 0.00 sec. (0.43 ticks)
*     0+    0                           62.1594      110.0000            76.96%
      0     0      110.0000     8       62.1594      110.0000       61   76.96%
      0     2      110.0000    11       62.1594      110.0000       61   76.96%
Elapsed time = 1.38 sec. (1277.06 ticks, tree = 0.01 MB, solutions = 1)
    115    69       69.2231     4       62.1594      110.0000      713   76.96%
*   146+   48                           91.3466      110.0000            20.42%
*   317+   76                           91.4175      110.0000            20.33%
    465   116      110.0000    10      102.1454      110.0000     2619    7.69%
   1024   198      105.9273    17      102.1454      110.0000    10425    7.69%
   1784    41      107.1499    19      102.1454      107.8307    18906    5.57%

Benders cuts applied:  961
Gomory fractional cuts applied:  6

Root node processing (before b&c):
  Real time             =    1.26 sec. (1276.21 ticks)
Parallel b&c, 8 threads:
  Real time             =    1.40 sec. (1013.42 ticks)
  Sync time (average)   =    0.07 sec.
  Wait time (average)   =    0.01 sec.
                          ------------
Total (root+branch&cut) =    2.66 sec. (2289.64 ticks)

Solution pool: 1 solution saved.

MIP - Integer optimal, tolerance (0.0001/1e-06):  Objective =  1.0214538906e+02
Current MIP best bound =  1.0214851883e+02 (gap = 0.00312976, 0.00%)
Solution time =    2.66 sec.  Iterations = 20163  Nodes = 1796 (1)
Deterministic time = 2290.48 ticks  (861.96 ticks/sec)


Solution pool written to file 'lsgcp_a5_b1_n2.sol'.
Current MIP best bound =  1.0214851883e+02 (gap = 0.00312976, 0.00%)
